W=6;
H=5;

MAX_TIME=30;
MAX_TRACKS=13;

TARGET=(5,6);

TRAINS=[(3,1,TOP),(3,3,TOP)];
DECOYS=[];

INIT_POS=[
(1,3,ESWITCH_L_R_D),
(2,1,STRAIGHT_TD),
(2,3,STRAIGHT_TD),
(2,5,STRAIGHT_TD),
(3,1,STRAIGHT_TD),
(3,3,STRAIGHT_TD),
(3,5,STRAIGHT_TD),
(4,1,STRAIGHT_TD),
(4,3,STRAIGHT_TD),
(5,5,ESWITCH_L_R_T),
(5,6,STRAIGHT_RL),
(2,6,ROCK),
];
TUNNEL_PAIRS=[];

GATES=[
(2,3,1,false),
];
ACTIVATIONS=[
(2,1,1),
(3,5,1),
(4,3,1),
];

DSWITCHES=[];
STATIONS=[
  (2,5,2),
  (4,1,2),
];

SEMAPHORE_SUPPLY=0;
